(set-logic QF_BV)
(declare-fun _substvar_40_ () (_ BitVec 1024))
(assert (and true true (or false false false (not (= ((_ extract 479 448) _substvar_40_) ((_ extract 447 416) _substvar_40_))) false false false false) true true true true true true))
(check-sat)
(exit)
